; Copyright (c) 2026 The RIINA Authors. All rights reserved.
; Copyright (c) 2026 The RIINA Authors.
; Auto-generated from 02_FORMAL/coq/domains/MalaysiaMCMC.v (20 assertions)
; Generated by scripts/generate-full-stack.py
; Module: MalaysiaMCMC

(set-logic ALL)
(set-option :produce-models true)

; MCMCLicense (matches Coq: Inductive MCMCLicense)
(declare-datatypes ((MCMCLicense 0)) (((NFP) (NSP) (ASP) (CSP))))

; no_unauthorized_interception (matches Coq: Definition no_unauthorized_interception)
(define-fun no_unauthorized_interception ((communications_encrypted Bool) (access_authorized Bool)) Prop
  true)

; fraud_controls_active (matches Coq: Definition fraud_controls_active)
(define-fun fraud_controls_active ((identity_verified Bool) (transaction_signed Bool) (audit_logged Bool)) Prop
  true)

; mcmc_fully_compliant (matches Coq: Definition mcmc_fully_compliant)
(define-fun mcmc_fully_compliant ((c MCMCCompliance)) Prop
  true)

; license_level (matches Coq: Definition license_level)
(define-fun license_level ((l MCMCLicense)) Int
  true)

; count_mcmc_controls (matches Coq: Definition count_mcmc_controls)
(define-fun count_mcmc_controls ((c MCMCCompliance)) Int
  true)

; license_eqb (matches Coq: Definition license_eqb)
(define-fun license_eqb () Bool Nat)

; s234_encrypted_compliant (matches Coq: Theorem s234_encrypted_compliant)
(assert (= true true)) ; s234_encrypted_compliant [untranslatable]

; s234_authorized_compliant (matches Coq: Theorem s234_authorized_compliant)
(assert (= true true)) ; s234_authorized_compliant [untranslatable]

; s236_fraud_prevention (matches Coq: Theorem s236_fraud_prevention)
(assert (= true true)) ; s236_fraud_prevention [untranslatable]

; mcmc_composition (matches Coq: Theorem mcmc_composition)
(assert (= true true)) ; mcmc_composition [untranslatable]

; mcmc_license_coverage (matches Coq: Theorem mcmc_license_coverage)
(assert (= true true)) ; mcmc_license_coverage [untranslatable]

; nfp_highest_level (matches Coq: Theorem nfp_highest_level)
(assert (= true true)) ; nfp_highest_level [untranslatable]

; csp_lowest_level (matches Coq: Theorem csp_lowest_level)
(assert (= true true)) ; csp_lowest_level [untranslatable]

; license_level_positive (matches Coq: Theorem license_level_positive)
(assert (= true true)) ; license_level_positive [untranslatable]

; mcmc_compliant_licensed (matches Coq: Theorem mcmc_compliant_licensed)
(assert (= true true)) ; mcmc_compliant_licensed [untranslatable]

; mcmc_compliant_technical (matches Coq: Theorem mcmc_compliant_technical)
(assert (= true true)) ; mcmc_compliant_technical [untranslatable]

; mcmc_compliant_consumer (matches Coq: Theorem mcmc_compliant_consumer)
(assert (= true true)) ; mcmc_compliant_consumer [untranslatable]

; mcmc_compliant_interception (matches Coq: Theorem mcmc_compliant_interception)
(assert (= true true)) ; mcmc_compliant_interception [untranslatable]

; mcmc_compliant_fraud (matches Coq: Theorem mcmc_compliant_fraud)
(assert (= true true)) ; mcmc_compliant_fraud [untranslatable]

; count_mcmc_bounded (matches Coq: Theorem count_mcmc_bounded)
(assert (= true true)) ; count_mcmc_bounded [untranslatable]

; mcmc_compliant_all_five (matches Coq: Theorem mcmc_compliant_all_five)
(assert (= true true)) ; mcmc_compliant_all_five [untranslatable]

; license_eqb_refl (matches Coq: Theorem license_eqb_refl)
(assert (= true true)) ; license_eqb_refl [untranslatable]

; fraud_requires_identity (matches Coq: Theorem fraud_requires_identity)
(assert (= true true)) ; fraud_requires_identity [untranslatable]

; fraud_requires_signing (matches Coq: Theorem fraud_requires_signing)
(assert (= true true)) ; fraud_requires_signing [untranslatable]

; fraud_requires_audit (matches Coq: Theorem fraud_requires_audit)
(assert (= true true)) ; fraud_requires_audit [untranslatable]

; mcmc_license_count (matches Coq: Theorem mcmc_license_count)
(assert (= (length all_mcmc_licenses) 4)) ; mcmc_license_count

; Verify all assertions are satisfiable
(check-sat)
(exit)
